************************************************************************
file with basedata            : mm27_.bas
initial value random generator: 384382780
************************************************************************
projects                      :  1
jobs (incl. supersource/sink ):  12
horizon                       :  81
RESOURCES
  - renewable                 :  2   R
  - nonrenewable              :  2   N
  - doubly constrained        :  0   D
************************************************************************
PROJECT INFORMATION:
pronr.  #jobs rel.date duedate tardcost  MPM-Time
    1     10      0       12        3       12
************************************************************************
PRECEDENCE RELATIONS:
jobnr.    #modes  #successors   successors
   0        1          3           1   2   3
   1        3          1           4
   2        3          2           5  10
   3        3          1           6
   4        3          2           9  10
   5        3          2           8   9
   6        3          2           7   8
   7        3          2           9  10
   8        3          1          11
   9        3          1          11
  10        3          1          11
  11        1          0        
************************************************************************
REQUESTS/DURATIONS:
jobnr. mode duration  R 1  R 2  R 3  R 4  E(W 1)  E(W 2)
------------------------------------------------------------------------
  0      1     0       0    0    0    0     0       0
  1      1     2       0   10    0    6    20      12
  2      1     1       0    9    0    4     9       4
  3      1     1       0    3    9    0     3       9
  4      1     1       6    0    0    7     6       7
  5      1     4       5    0    7    0    20      28
  6      1     1       0    8    7    0     8       7
  7      1     4       7    0    0    4    28      16
  8      1     4       0    5    0    8    20      32
  9      1     6       0    9    6    0    54      36
 10      1     2       0    8    8    0    16      16
 11      1     0       0    0    0    0     0       0
************************************************************************
RESOURCEAVAILABILITIES:
  R 1  R 2
   45   78
************************************************************************
RESOURCE LIMITS:
jobnr.  l(R 1)  u(R 1)  l(R 2)  u(R 2)
------------------------------------------------------------------------
  0        0       0       0       0
  1        5      10       3       6
  2        5       9       2       4
  3        2       3       5       9
  4        3       6       4       7
  5        3       5       4       7
  6        4       8       4       7
  7        4       7       2       4
  8        3       5       4       8
  9        5       9       3       6
 10        4       8       4       8
 11        0       0       0       0
************************************************************************
SCENARIOS:
------------------------------------------------------------------------
RESOURCE k = 1
s = 1: (0, 19, 9, 6, 6, 17, 9, 27, 14, 59, 12, 0)
s = 2: (0, 23, 9, 3, 7, 18, 14, 30, 29, 48, 19, 0)
s = 3: (0, 18, 7, 3, 6, 16, 11, 34, 16, 45, 16, 0)
s = 4: (0, 21, 18, 3, 6, 19, 5, 26, 21, 45, 22, 0)
s = 5: (0, 21, 11, 3, 7, 17, 9, 24, 21, 30, 20, 0)
s = 6: (0, 18, 8, 5, 9, 25, 6, 38, 29, 58, 13, 0)
s = 7: (0, 16, 10, 3, 8, 21, 11, 15, 31, 53, 20, 0)
s = 8: (0, 26, 6, 3, 6, 22, 6, 56, 15, 65, 12, 0)
s = 9: (0, 13, 12, 4, 5, 21, 10, 35, 24, 55, 18, 0)
s = 10: (0, 21, 13, 3, 8, 17, 11, 42, 35, 56, 22, 0)
s = 11: (0, 13, 6, 3, 8, 18, 8, 36, 22, 78, 20, 0)
s = 12: (0, 18, 8, 4, 5, 19, 8, 20, 35, 53, 14, 0)
s = 13: (0, 22, 9, 3, 7, 26, 5, 36, 34, 29, 16, 0)
s = 14: (0, 21, 7, 4, 6, 11, 11, 27, 16, 57, 13, 0)
s = 15: (0, 19, 14, 4, 7, 15, 8, 31, 22, 55, 12, 0)
s = 16: (0, 27, 13, 4, 7, 15, 6, 22, 14, 60, 14, 0)
s = 17: (0, 29, 8, 4, 5, 19, 7, 33, 17, 41, 21, 0)
s = 18: (0, 25, 12, 2, 7, 15, 7, 37, 18, 42, 19, 0)
s = 19: (0, 20, 8, 5, 7, 16, 7, 31, 17, 58, 14, 0)
s = 20: (0, 26, 8, 4, 8, 32, 6, 23, 13, 46, 17, 0)
s = 21: (0, 23, 5, 3, 4, 21, 7, 26, 18, 78, 16, 0)
s = 22: (0, 24, 6, 3, 5, 21, 6, 21, 26, 56, 17, 0)
s = 23: (0, 19, 9, 5, 11, 28, 16, 44, 31, 57, 14, 0)
s = 24: (0, 18, 10, 4, 7, 13, 5, 32, 18, 50, 19, 0)
s = 25: (0, 31, 8, 3, 8, 38, 7, 30, 29, 79, 19, 0)
s = 26: (0, 11, 9, 3, 4, 19, 6, 31, 17, 72, 14, 0)
s = 27: (0, 22, 12, 4, 6, 33, 8, 53, 22, 54, 12, 0)
s = 28: (0, 17, 9, 4, 5, 15, 12, 28, 18, 84, 17, 0)
s = 29: (0, 20, 12, 3, 6, 14, 8, 20, 15, 76, 17, 0)
s = 30: (0, 24, 7, 3, 6, 20, 12, 46, 18, 61, 13, 0)
s = 31: (0, 21, 10, 3, 8, 13, 8, 42, 24, 51, 22, 0)
s = 32: (0, 15, 9, 5, 4, 18, 11, 18, 13, 36, 14, 0)
s = 33: (0, 18, 7, 4, 8, 24, 7, 43, 13, 40, 12, 0)
s = 34: (0, 21, 9, 4, 4, 20, 7, 20, 14, 53, 9, 0)
s = 35: (0, 29, 9, 5, 8, 29, 14, 43, 28, 60, 11, 0)
s = 36: (0, 34, 10, 3, 6, 18, 6, 26, 18, 55, 17, 0)
s = 37: (0, 14, 10, 6, 5, 24, 10, 21, 23, 58, 11, 0)
s = 38: (0, 28, 13, 3, 7, 19, 9, 19, 32, 46, 28, 0)
s = 39: (0, 29, 10, 3, 6, 12, 10, 28, 13, 44, 13, 0)
s = 40: (0, 14, 9, 4, 4, 19, 6, 37, 18, 47, 24, 0)
s = 41: (0, 19, 14, 4, 5, 26, 7, 44, 24, 90, 24, 0)
s = 42: (0, 31, 9, 4, 8, 23, 7, 23, 31, 39, 19, 0)
s = 43: (0, 21, 18, 2, 7, 27, 11, 24, 13, 53, 15, 0)
s = 44: (0, 19, 7, 4, 7, 25, 6, 33, 15, 62, 13, 0)
s = 45: (0, 23, 11, 3, 4, 12, 11, 39, 20, 61, 15, 0)
s = 46: (0, 11, 12, 3, 7, 23, 13, 31, 22, 45, 28, 0)
s = 47: (0, 17, 12, 3, 4, 22, 5, 27, 24, 48, 22, 0)
s = 48: (0, 25, 8, 4, 7, 19, 9, 31, 24, 51, 19, 0)
s = 49: (0, 15, 10, 4, 5, 25, 9, 31, 25, 62, 21, 0)
s = 50: (0, 27, 10, 4, 6, 21, 7, 31, 13, 77, 14, 0)
s = 51: (0, 15, 11, 3, 10, 25, 7, 34, 26, 37, 17, 0)
s = 52: (0, 15, 7, 3, 6, 19, 9, 44, 14, 37, 17, 0)
s = 53: (0, 16, 8, 3, 6, 24, 6, 37, 29, 55, 16, 0)
s = 54: (0, 32, 7, 4, 7, 15, 6, 28, 28, 39, 25, 0)
s = 55: (0, 19, 9, 4, 7, 13, 13, 17, 27, 38, 28, 0)
s = 56: (0, 22, 9, 4, 5, 20, 8, 20, 17, 72, 18, 0)
s = 57: (0, 14, 7, 3, 8, 17, 6, 37, 24, 50, 23, 0)
s = 58: (0, 22, 7, 3, 5, 17, 9, 24, 19, 56, 14, 0)
s = 59: (0, 12, 17, 2, 7, 28, 10, 21, 20, 50, 15, 0)
s = 60: (0, 15, 8, 4, 6, 22, 8, 23, 26, 87, 20, 0)
s = 61: (0, 11, 6, 3, 5, 17, 6, 21, 14, 30, 19, 0)
s = 62: (0, 36, 12, 3, 5, 22, 5, 20, 24, 58, 13, 0)
s = 63: (0, 14, 6, 3, 7, 15, 5, 36, 24, 80, 13, 0)
s = 64: (0, 22, 8, 4, 10, 33, 11, 30, 14, 41, 21, 0)
s = 65: (0, 27, 8, 3, 6, 25, 10, 25, 17, 81, 23, 0)
s = 66: (0, 23, 8, 2, 8, 23, 10, 20, 18, 32, 11, 0)
s = 67: (0, 17, 14, 4, 10, 29, 7, 27, 26, 54, 10, 0)
s = 68: (0, 30, 9, 3, 9, 21, 9, 22, 16, 55, 14, 0)
s = 69: (0, 35, 6, 5, 5, 21, 7, 19, 13, 38, 13, 0)
s = 70: (0, 23, 11, 5, 4, 14, 8, 24, 17, 44, 21, 0)
s = 71: (0, 19, 11, 4, 8, 17, 7, 20, 22, 59, 13, 0)
s = 72: (0, 15, 10, 3, 8, 22, 8, 33, 19, 32, 12, 0)
s = 73: (0, 16, 8, 4, 8, 16, 9, 31, 24, 49, 19, 0)
s = 74: (0, 28, 9, 3, 5, 11, 10, 31, 19, 75, 25, 0)
s = 75: (0, 28, 11, 3, 7, 18, 5, 38, 21, 52, 15, 0)
s = 76: (0, 18, 10, 3, 6, 13, 7, 48, 19, 39, 19, 0)
s = 77: (0, 17, 6, 3, 7, 13, 11, 22, 17, 79, 17, 0)
s = 78: (0, 18, 8, 2, 5, 21, 12, 28, 28, 64, 18, 0)
s = 79: (0, 22, 8, 4, 6, 32, 7, 24, 24, 36, 16, 0)
s = 80: (0, 23, 6, 5, 5, 26, 11, 28, 22, 40, 12, 0)
s = 81: (0, 18, 9, 4, 6, 13, 13, 25, 18, 45, 12, 0)
s = 82: (0, 20, 9, 3, 7, 12, 13, 16, 25, 42, 11, 0)
s = 83: (0, 19, 13, 5, 8, 12, 12, 41, 18, 51, 13, 0)
s = 84: (0, 20, 14, 4, 7, 22, 9, 39, 18, 69, 24, 0)
s = 85: (0, 24, 9, 3, 5, 13, 5, 26, 14, 66, 10, 0)
s = 86: (0, 21, 6, 3, 12, 13, 9, 33, 16, 73, 21, 0)
s = 87: (0, 30, 7, 4, 5, 17, 7, 38, 27, 40, 17, 0)
s = 88: (0, 13, 8, 3, 9, 32, 9, 27, 27, 39, 15, 0)
s = 89: (0, 15, 10, 4, 9, 28, 10, 25, 21, 81, 23, 0)
s = 90: (0, 19, 9, 3, 7, 18, 7, 38, 16, 46, 16, 0)
s = 91: (0, 20, 10, 5, 4, 16, 6, 21, 18, 34, 15, 0)
s = 92: (0, 34, 7, 4, 8, 15, 5, 20, 17, 51, 10, 0)
s = 93: (0, 25, 14, 4, 5, 12, 10, 19, 36, 52, 14, 0)
s = 94: (0, 15, 8, 4, 4, 35, 7, 20, 14, 46, 12, 0)
s = 95: (0, 19, 10, 4, 6, 16, 12, 41, 17, 38, 14, 0)
s = 96: (0, 20, 13, 4, 5, 18, 7, 23, 21, 54, 17, 0)
s = 97: (0, 25, 10, 4, 8, 17, 9, 27, 22, 45, 17, 0)
s = 98: (0, 17, 17, 3, 7, 14, 8, 40, 21, 81, 22, 0)
s = 99: (0, 18, 15, 5, 6, 31, 10, 32, 17, 38, 16, 0)
s = 100: (0, 26, 11, 4, 4, 21, 14, 37, 17, 63, 19, 0)
s = 101: (0, 22, 9, 3, 6, 23, 7, 38, 21, 35, 19, 0)
s = 102: (0, 14, 9, 3, 9, 15, 15, 31, 17, 63, 14, 0)
s = 103: (0, 29, 10, 2, 10, 17, 9, 26, 21, 75, 13, 0)
s = 104: (0, 19, 7, 4, 7, 30, 9, 32, 17, 42, 11, 0)
s = 105: (0, 17, 13, 2, 7, 14, 8, 18, 17, 40, 15, 0)
s = 106: (0, 19, 7, 3, 8, 19, 9, 19, 13, 45, 17, 0)
s = 107: (0, 16, 11, 4, 8, 13, 8, 26, 27, 32, 21, 0)
s = 108: (0, 15, 11, 3, 6, 21, 9, 38, 18, 93, 10, 0)
s = 109: (0, 11, 8, 4, 4, 21, 10, 24, 20, 55, 14, 0)
s = 110: (0, 16, 11, 4, 8, 27, 9, 34, 12, 54, 17, 0)
s = 111: (0, 23, 7, 4, 7, 17, 8, 42, 19, 44, 13, 0)
s = 112: (0, 24, 6, 3, 5, 30, 5, 23, 12, 47, 15, 0)
s = 113: (0, 26, 9, 3, 4, 22, 8, 32, 13, 78, 18, 0)
s = 114: (0, 22, 8, 4, 7, 12, 9, 33, 19, 90, 17, 0)
s = 115: (0, 28, 13, 4, 7, 15, 9, 33, 26, 47, 20, 0)
s = 116: (0, 13, 11, 5, 8, 18, 6, 33, 32, 62, 12, 0)
s = 117: (0, 13, 10, 3, 5, 16, 8, 31, 19, 40, 9, 0)
s = 118: (0, 17, 9, 3, 4, 18, 8, 19, 18, 66, 19, 0)
s = 119: (0, 12, 6, 5, 7, 24, 7, 37, 16, 34, 23, 0)
s = 120: (0, 16, 11, 4, 8, 26, 8, 31, 21, 89, 22, 0)
s = 121: (0, 27, 9, 4, 4, 12, 9, 27, 27, 42, 16, 0)
s = 122: (0, 23, 6, 3, 5, 24, 7, 31, 30, 70, 14, 0)
s = 123: (0, 15, 16, 4, 8, 18, 7, 27, 28, 45, 17, 0)
s = 124: (0, 22, 11, 4, 8, 24, 8, 40, 19, 68, 16, 0)
s = 125: (0, 22, 10, 4, 5, 21, 13, 26, 18, 36, 16, 0)
s = 126: (0, 14, 11, 4, 6, 21, 9, 26, 33, 33, 13, 0)
s = 127: (0, 18, 13, 3, 8, 27, 7, 29, 21, 71, 10, 0)
s = 128: (0, 28, 7, 3, 5, 20, 7, 31, 22, 64, 29, 0)
s = 129: (0, 20, 13, 3, 9, 17, 13, 41, 27, 50, 15, 0)
s = 130: (0, 20, 11, 4, 7, 19, 8, 18, 13, 51, 23, 0)
s = 131: (0, 17, 10, 2, 7, 29, 6, 24, 15, 45, 15, 0)
s = 132: (0, 15, 11, 4, 5, 27, 9, 33, 21, 64, 16, 0)
s = 133: (0, 17, 6, 4, 5, 31, 5, 43, 35, 47, 21, 0)
s = 134: (0, 15, 11, 3, 5, 12, 5, 24, 26, 71, 19, 0)
s = 135: (0, 20, 5, 4, 5, 17, 6, 42, 30, 59, 15, 0)
s = 136: (0, 17, 9, 3, 7, 18, 9, 38, 20, 44, 19, 0)
s = 137: (0, 17, 10, 4, 5, 19, 12, 19, 31, 75, 17, 0)
s = 138: (0, 17, 8, 4, 4, 23, 9, 26, 18, 96, 9, 0)
s = 139: (0, 20, 11, 2, 7, 13, 6, 24, 27, 70, 20, 0)
s = 140: (0, 22, 12, 3, 7, 30, 6, 23, 21, 56, 16, 0)
s = 141: (0, 11, 14, 4, 7, 18, 10, 32, 13, 53, 15, 0)
s = 142: (0, 25, 10, 3, 9, 28, 11, 22, 14, 44, 10, 0)
s = 143: (0, 17, 9, 2, 10, 26, 5, 35, 27, 35, 13, 0)
s = 144: (0, 18, 9, 3, 5, 12, 10, 26, 12, 83, 13, 0)
s = 145: (0, 21, 10, 3, 5, 38, 11, 30, 21, 40, 20, 0)
s = 146: (0, 18, 15, 4, 5, 26, 8, 33, 23, 43, 11, 0)
s = 147: (0, 21, 7, 3, 9, 13, 10, 22, 20, 40, 10, 0)
s = 148: (0, 37, 11, 5, 6, 14, 9, 35, 15, 55, 11, 0)
s = 149: (0, 16, 13, 4, 4, 18, 5, 42, 11, 58, 26, 0)
s = 150: (0, 16, 12, 3, 7, 15, 9, 20, 22, 43, 14, 0)
s = 151: (0, 18, 9, 4, 5, 27, 10, 28, 17, 69, 10, 0)
s = 152: (0, 18, 5, 3, 7, 14, 7, 30, 16, 80, 17, 0)
s = 153: (0, 25, 8, 4, 7, 16, 12, 28, 24, 57, 13, 0)
s = 154: (0, 23, 8, 4, 4, 22, 11, 24, 23, 89, 20, 0)
s = 155: (0, 38, 6, 4, 7, 20, 11, 26, 29, 32, 18, 0)
s = 156: (0, 18, 8, 4, 6, 20, 8, 23, 33, 33, 13, 0)
s = 157: (0, 19, 10, 3, 7, 22, 7, 27, 19, 34, 19, 0)
s = 158: (0, 21, 10, 5, 6, 21, 9, 21, 29, 43, 15, 0)
s = 159: (0, 31, 7, 3, 4, 15, 10, 27, 19, 65, 14, 0)
s = 160: (0, 19, 7, 3, 6, 21, 5, 20, 21, 34, 14, 0)
s = 161: (0, 28, 9, 2, 8, 22, 8, 29, 15, 49, 17, 0)
s = 162: (0, 26, 11, 4, 6, 30, 5, 28, 16, 65, 20, 0)
s = 163: (0, 27, 14, 2, 6, 22, 6, 27, 19, 48, 14, 0)
s = 164: (0, 19, 12, 2, 8, 15, 9, 25, 20, 54, 9, 0)
s = 165: (0, 14, 9, 3, 9, 21, 14, 20, 24, 37, 19, 0)
s = 166: (0, 17, 11, 4, 4, 19, 9, 27, 25, 42, 16, 0)
s = 167: (0, 18, 10, 3, 5, 36, 11, 27, 18, 51, 15, 0)
s = 168: (0, 32, 9, 3, 7, 24, 5, 30, 26, 72, 15, 0)
s = 169: (0, 17, 9, 4, 6, 26, 12, 27, 13, 70, 16, 0)
s = 170: (0, 13, 12, 2, 6, 26, 8, 30, 33, 34, 17, 0)
s = 171: (0, 20, 9, 3, 7, 18, 7, 21, 23, 54, 12, 0)
s = 172: (0, 20, 11, 3, 9, 24, 7, 21, 25, 64, 18, 0)
s = 173: (0, 23, 12, 3, 5, 29, 11, 26, 21, 43, 12, 0)
s = 174: (0, 17, 5, 4, 10, 25, 10, 31, 24, 37, 22, 0)
s = 175: (0, 17, 7, 4, 4, 15, 7, 26, 22, 43, 11, 0)
s = 176: (0, 14, 11, 4, 6, 15, 8, 22, 19, 48, 13, 0)
s = 177: (0, 22, 13, 4, 4, 18, 11, 24, 22, 34, 21, 0)
s = 178: (0, 22, 15, 4, 8, 15, 6, 29, 16, 48, 17, 0)
s = 179: (0, 17, 8, 4, 9, 21, 5, 22, 32, 39, 20, 0)
s = 180: (0, 11, 9, 5, 5, 14, 6, 43, 33, 86, 20, 0)
s = 181: (0, 21, 15, 5, 5, 20, 10, 27, 29, 50, 17, 0)
s = 182: (0, 23, 11, 3, 4, 18, 7, 21, 18, 50, 11, 0)
s = 183: (0, 30, 12, 4, 7, 14, 8, 23, 25, 38, 12, 0)
s = 184: (0, 19, 7, 3, 8, 27, 8, 21, 25, 39, 17, 0)
s = 185: (0, 14, 9, 3, 4, 22, 10, 22, 12, 55, 20, 0)
s = 186: (0, 35, 6, 4, 4, 34, 10, 28, 16, 45, 12, 0)
s = 187: (0, 37, 13, 3, 5, 17, 8, 26, 19, 53, 22, 0)
s = 188: (0, 16, 7, 3, 6, 18, 6, 19, 31, 66, 17, 0)
s = 189: (0, 16, 12, 3, 5, 16, 8, 30, 22, 51, 21, 0)
s = 190: (0, 23, 9, 3, 8, 17, 6, 28, 24, 74, 10, 0)
s = 191: (0, 22, 9, 3, 5, 13, 5, 24, 14, 49, 23, 0)
s = 192: (0, 14, 6, 4, 9, 16, 6, 20, 16, 40, 17, 0)
s = 193: (0, 14, 10, 5, 6, 17, 8, 29, 23, 44, 22, 0)
s = 194: (0, 14, 8, 6, 5, 18, 7, 23, 29, 41, 13, 0)
s = 195: (0, 25, 8, 2, 4, 33, 5, 29, 13, 44, 12, 0)
s = 196: (0, 19, 7, 3, 11, 28, 10, 17, 23, 63, 16, 0)
s = 197: (0, 15, 8, 4, 11, 20, 6, 37, 22, 52, 14, 0)
s = 198: (0, 20, 13, 4, 5, 19, 7, 29, 15, 58, 21, 0)
s = 199: (0, 30, 6, 3, 6, 25, 7, 21, 16, 47, 16, 0)
s = 200: (0, 29, 13, 3, 4, 14, 10, 41, 23, 44, 20, 0)
------------------------------------------------------------------------
RESOURCE k = 2
s = 1: (0, 12, 4, 16, 7, 23, 8, 15, 21, 40, 12, 0)
s = 2: (0, 14, 4, 9, 8, 25, 12, 17, 46, 32, 19, 0)
s = 3: (0, 11, 3, 9, 7, 22, 10, 20, 26, 30, 16, 0)
s = 4: (0, 13, 8, 7, 6, 26, 4, 15, 34, 30, 22, 0)
s = 5: (0, 13, 5, 8, 8, 24, 8, 14, 33, 20, 20, 0)
s = 6: (0, 11, 4, 15, 11, 34, 5, 22, 46, 39, 13, 0)
s = 7: (0, 10, 5, 9, 9, 29, 10, 9, 50, 36, 20, 0)
s = 8: (0, 16, 3, 7, 7, 30, 5, 32, 24, 43, 12, 0)
s = 9: (0, 8, 6, 12, 6, 29, 8, 20, 38, 37, 18, 0)
s = 10: (0, 13, 6, 8, 9, 24, 10, 24, 55, 37, 22, 0)
s = 11: (0, 8, 3, 7, 9, 25, 7, 21, 35, 52, 20, 0)
s = 12: (0, 11, 4, 10, 6, 27, 7, 12, 56, 36, 14, 0)
s = 13: (0, 14, 4, 8, 8, 36, 5, 21, 53, 19, 16, 0)
s = 14: (0, 13, 3, 10, 6, 15, 10, 16, 25, 38, 13, 0)
s = 15: (0, 12, 7, 11, 9, 21, 7, 18, 35, 37, 12, 0)
s = 16: (0, 16, 6, 12, 8, 21, 6, 13, 22, 40, 14, 0)
s = 17: (0, 18, 4, 11, 6, 27, 6, 19, 26, 28, 21, 0)
s = 18: (0, 15, 6, 6, 8, 21, 7, 21, 28, 28, 19, 0)
s = 19: (0, 12, 4, 13, 9, 22, 6, 18, 26, 39, 14, 0)
s = 20: (0, 16, 4, 12, 9, 45, 6, 13, 21, 31, 17, 0)
s = 21: (0, 14, 3, 8, 5, 30, 6, 15, 28, 52, 16, 0)
s = 22: (0, 14, 3, 7, 6, 29, 6, 12, 41, 37, 17, 0)
s = 23: (0, 11, 4, 13, 13, 39, 14, 26, 50, 38, 14, 0)
s = 24: (0, 11, 5, 10, 8, 17, 5, 18, 29, 34, 19, 0)
s = 25: (0, 19, 4, 8, 9, 53, 6, 17, 46, 53, 19, 0)
s = 26: (0, 7, 4, 8, 5, 26, 5, 18, 27, 48, 14, 0)
s = 27: (0, 13, 6, 10, 7, 46, 7, 30, 34, 36, 12, 0)
s = 28: (0, 10, 4, 12, 6, 21, 10, 16, 28, 56, 17, 0)
s = 29: (0, 12, 6, 7, 7, 19, 7, 12, 23, 51, 17, 0)
s = 30: (0, 14, 4, 8, 7, 28, 10, 26, 28, 41, 13, 0)
s = 31: (0, 13, 5, 7, 9, 18, 7, 24, 39, 34, 22, 0)
s = 32: (0, 9, 4, 14, 4, 25, 10, 11, 21, 24, 14, 0)
s = 33: (0, 11, 3, 12, 9, 34, 6, 25, 21, 27, 12, 0)
s = 34: (0, 13, 4, 10, 4, 27, 6, 12, 22, 35, 9, 0)
s = 35: (0, 18, 4, 15, 10, 40, 13, 25, 44, 40, 11, 0)
s = 36: (0, 21, 5, 7, 7, 24, 5, 15, 29, 37, 17, 0)
s = 37: (0, 9, 5, 16, 6, 34, 9, 12, 37, 39, 11, 0)
s = 38: (0, 17, 6, 8, 8, 26, 8, 11, 51, 31, 28, 0)
s = 39: (0, 18, 5, 8, 7, 16, 8, 16, 21, 29, 13, 0)
s = 40: (0, 9, 4, 11, 5, 26, 5, 21, 29, 31, 24, 0)
s = 41: (0, 12, 6, 12, 5, 36, 6, 26, 38, 60, 24, 0)
s = 42: (0, 19, 4, 12, 9, 32, 6, 14, 49, 26, 19, 0)
s = 43: (0, 13, 8, 6, 8, 38, 9, 14, 20, 36, 15, 0)
s = 44: (0, 12, 4, 11, 9, 34, 5, 19, 24, 42, 13, 0)
s = 45: (0, 14, 5, 9, 5, 17, 10, 22, 32, 41, 15, 0)
s = 46: (0, 7, 6, 7, 8, 32, 12, 18, 36, 30, 28, 0)
s = 47: (0, 10, 6, 9, 5, 30, 5, 16, 38, 32, 22, 0)
s = 48: (0, 15, 4, 10, 8, 27, 8, 18, 38, 34, 19, 0)
s = 49: (0, 9, 5, 12, 5, 35, 8, 18, 40, 42, 21, 0)
s = 50: (0, 17, 5, 11, 7, 29, 6, 18, 20, 52, 14, 0)
s = 51: (0, 9, 5, 8, 12, 35, 6, 19, 42, 25, 17, 0)
s = 52: (0, 9, 3, 8, 7, 26, 8, 25, 22, 25, 17, 0)
s = 53: (0, 10, 4, 9, 7, 33, 5, 22, 46, 37, 16, 0)
s = 54: (0, 19, 3, 11, 8, 21, 5, 16, 44, 26, 25, 0)
s = 55: (0, 12, 4, 10, 8, 18, 12, 10, 42, 25, 28, 0)
s = 56: (0, 13, 4, 10, 6, 27, 7, 12, 27, 48, 18, 0)
s = 57: (0, 8, 4, 8, 10, 24, 6, 21, 39, 34, 23, 0)
s = 58: (0, 13, 3, 8, 6, 24, 8, 14, 31, 37, 14, 0)
s = 59: (0, 7, 8, 6, 8, 38, 8, 12, 31, 34, 15, 0)
s = 60: (0, 9, 4, 10, 7, 30, 7, 13, 41, 58, 20, 0)
s = 61: (0, 7, 3, 8, 6, 23, 6, 12, 22, 20, 19, 0)
s = 62: (0, 22, 6, 9, 6, 30, 5, 12, 38, 39, 13, 0)
s = 63: (0, 9, 3, 8, 8, 21, 4, 21, 38, 54, 13, 0)
s = 64: (0, 13, 4, 12, 12, 46, 10, 17, 23, 28, 21, 0)
s = 65: (0, 16, 4, 9, 7, 35, 8, 15, 27, 54, 23, 0)
s = 66: (0, 14, 4, 6, 9, 33, 9, 11, 29, 21, 11, 0)
s = 67: (0, 10, 7, 12, 11, 40, 7, 16, 42, 36, 10, 0)
s = 68: (0, 18, 4, 8, 10, 29, 8, 13, 25, 37, 14, 0)
s = 69: (0, 21, 3, 14, 6, 29, 6, 11, 21, 26, 13, 0)
s = 70: (0, 14, 5, 13, 5, 20, 7, 14, 26, 30, 21, 0)
s = 71: (0, 12, 5, 12, 10, 24, 6, 12, 35, 40, 13, 0)
s = 72: (0, 9, 5, 8, 10, 31, 7, 19, 30, 21, 12, 0)
s = 73: (0, 10, 4, 10, 9, 23, 8, 18, 39, 33, 19, 0)
s = 74: (0, 17, 4, 7, 6, 16, 9, 18, 31, 50, 25, 0)
s = 75: (0, 17, 5, 8, 8, 24, 5, 22, 34, 35, 15, 0)
s = 76: (0, 11, 5, 9, 7, 19, 6, 28, 29, 26, 19, 0)
s = 77: (0, 10, 3, 7, 8, 19, 10, 13, 27, 53, 17, 0)
s = 78: (0, 11, 4, 6, 5, 29, 10, 16, 45, 43, 18, 0)
s = 79: (0, 14, 4, 10, 7, 44, 6, 14, 39, 24, 16, 0)
s = 80: (0, 14, 3, 15, 6, 36, 9, 16, 35, 27, 12, 0)
s = 81: (0, 11, 4, 11, 7, 18, 11, 14, 28, 30, 12, 0)
s = 82: (0, 12, 4, 7, 8, 17, 12, 9, 39, 28, 11, 0)
s = 83: (0, 11, 6, 13, 9, 16, 10, 24, 29, 34, 13, 0)
s = 84: (0, 12, 7, 11, 8, 30, 8, 23, 28, 46, 24, 0)
s = 85: (0, 14, 4, 7, 5, 18, 5, 15, 22, 44, 10, 0)
s = 86: (0, 13, 3, 9, 14, 18, 8, 19, 26, 49, 21, 0)
s = 87: (0, 18, 3, 11, 6, 24, 6, 22, 43, 27, 17, 0)
s = 88: (0, 8, 4, 9, 10, 44, 8, 16, 43, 26, 15, 0)
s = 89: (0, 9, 5, 10, 10, 39, 8, 15, 33, 54, 23, 0)
s = 90: (0, 11, 4, 8, 8, 26, 7, 22, 26, 31, 16, 0)
s = 91: (0, 12, 5, 14, 5, 22, 5, 12, 29, 23, 15, 0)
s = 92: (0, 20, 3, 10, 9, 21, 4, 11, 26, 34, 10, 0)
s = 93: (0, 15, 7, 11, 6, 16, 9, 11, 57, 35, 14, 0)
s = 94: (0, 9, 4, 12, 5, 49, 7, 12, 22, 31, 12, 0)
s = 95: (0, 12, 5, 12, 7, 22, 11, 23, 27, 25, 14, 0)
s = 96: (0, 12, 6, 10, 6, 24, 6, 13, 34, 36, 17, 0)
s = 97: (0, 15, 5, 11, 9, 23, 8, 15, 35, 30, 17, 0)
s = 98: (0, 11, 8, 7, 8, 19, 7, 23, 33, 54, 22, 0)
s = 99: (0, 11, 7, 15, 7, 43, 8, 18, 26, 26, 16, 0)
s = 100: (0, 16, 5, 11, 4, 29, 12, 21, 28, 42, 19, 0)
s = 101: (0, 14, 4, 7, 7, 31, 6, 22, 34, 23, 19, 0)
s = 102: (0, 9, 4, 7, 10, 21, 13, 18, 27, 42, 14, 0)
s = 103: (0, 18, 5, 6, 12, 23, 8, 15, 34, 50, 13, 0)
s = 104: (0, 12, 3, 10, 9, 41, 8, 19, 27, 28, 11, 0)
s = 105: (0, 10, 6, 5, 8, 19, 7, 10, 26, 27, 15, 0)
s = 106: (0, 12, 3, 8, 9, 27, 8, 11, 20, 30, 17, 0)
s = 107: (0, 10, 5, 12, 10, 17, 7, 15, 43, 21, 21, 0)
s = 108: (0, 9, 5, 7, 7, 29, 8, 22, 29, 62, 10, 0)
s = 109: (0, 7, 4, 12, 5, 30, 9, 14, 31, 37, 14, 0)
s = 110: (0, 10, 5, 10, 9, 38, 8, 20, 19, 36, 17, 0)
s = 111: (0, 14, 3, 11, 8, 23, 7, 24, 30, 29, 13, 0)
s = 112: (0, 14, 3, 8, 6, 42, 5, 13, 19, 31, 15, 0)
s = 113: (0, 16, 4, 9, 5, 30, 7, 19, 21, 52, 18, 0)
s = 114: (0, 13, 4, 10, 8, 16, 8, 19, 31, 60, 17, 0)
s = 115: (0, 17, 6, 11, 9, 20, 8, 19, 41, 32, 20, 0)
s = 116: (0, 8, 5, 13, 10, 25, 5, 19, 51, 42, 12, 0)
s = 117: (0, 8, 5, 7, 6, 22, 7, 18, 31, 27, 9, 0)
s = 118: (0, 11, 4, 8, 4, 25, 7, 11, 29, 44, 19, 0)
s = 119: (0, 7, 3, 14, 8, 33, 6, 21, 26, 23, 23, 0)
s = 120: (0, 10, 5, 10, 9, 36, 7, 18, 33, 60, 22, 0)
s = 121: (0, 16, 4, 11, 5, 17, 8, 16, 43, 28, 16, 0)
s = 122: (0, 14, 3, 7, 6, 33, 6, 18, 48, 47, 14, 0)
s = 123: (0, 9, 7, 10, 10, 25, 6, 16, 45, 30, 17, 0)
s = 124: (0, 13, 5, 12, 9, 33, 7, 23, 30, 46, 16, 0)
s = 125: (0, 13, 5, 11, 5, 30, 12, 15, 28, 24, 16, 0)
s = 126: (0, 8, 5, 10, 6, 29, 8, 15, 52, 22, 13, 0)
s = 127: (0, 11, 6, 7, 9, 37, 6, 17, 33, 48, 10, 0)
s = 128: (0, 17, 3, 8, 6, 28, 6, 18, 35, 43, 29, 0)
s = 129: (0, 12, 6, 8, 10, 23, 12, 24, 43, 34, 15, 0)
s = 130: (0, 12, 5, 10, 9, 26, 7, 11, 20, 34, 23, 0)
s = 131: (0, 10, 5, 6, 9, 41, 5, 14, 24, 30, 15, 0)
s = 132: (0, 9, 5, 10, 6, 37, 8, 19, 34, 43, 16, 0)
s = 133: (0, 11, 3, 11, 6, 44, 4, 25, 55, 31, 21, 0)
s = 134: (0, 9, 5, 9, 6, 16, 4, 14, 41, 47, 19, 0)
s = 135: (0, 12, 3, 10, 6, 24, 6, 24, 47, 39, 15, 0)
s = 136: (0, 11, 4, 8, 8, 25, 8, 22, 31, 30, 19, 0)
s = 137: (0, 11, 5, 10, 6, 26, 11, 11, 49, 50, 17, 0)
s = 138: (0, 11, 4, 11, 5, 32, 8, 15, 29, 64, 9, 0)
s = 139: (0, 12, 5, 6, 8, 18, 5, 14, 43, 47, 20, 0)
s = 140: (0, 13, 6, 8, 8, 41, 5, 14, 33, 37, 16, 0)
s = 141: (0, 7, 7, 12, 8, 25, 9, 19, 20, 36, 15, 0)
s = 142: (0, 15, 5, 7, 10, 38, 10, 13, 22, 29, 10, 0)
s = 143: (0, 10, 4, 6, 12, 36, 4, 20, 44, 24, 13, 0)
s = 144: (0, 11, 4, 7, 6, 17, 9, 15, 18, 56, 13, 0)
s = 145: (0, 13, 5, 9, 6, 53, 10, 17, 33, 27, 20, 0)
s = 146: (0, 11, 7, 11, 6, 37, 7, 19, 36, 29, 11, 0)
s = 147: (0, 13, 3, 7, 10, 18, 9, 13, 32, 27, 10, 0)
s = 148: (0, 22, 5, 13, 7, 19, 8, 20, 24, 37, 11, 0)
s = 149: (0, 10, 6, 11, 5, 26, 4, 24, 18, 39, 26, 0)
s = 150: (0, 10, 6, 9, 8, 21, 8, 12, 34, 29, 14, 0)
s = 151: (0, 11, 4, 10, 5, 37, 9, 16, 27, 46, 10, 0)
s = 152: (0, 11, 3, 9, 8, 20, 6, 17, 25, 54, 17, 0)
s = 153: (0, 15, 4, 10, 8, 22, 10, 16, 38, 38, 13, 0)
s = 154: (0, 14, 4, 12, 5, 31, 10, 14, 36, 60, 20, 0)
s = 155: (0, 23, 3, 10, 8, 28, 10, 15, 47, 21, 18, 0)
s = 156: (0, 11, 4, 12, 7, 28, 7, 14, 52, 22, 13, 0)
s = 157: (0, 11, 5, 9, 9, 30, 6, 16, 30, 23, 19, 0)
s = 158: (0, 13, 5, 14, 7, 29, 8, 12, 47, 29, 15, 0)
s = 159: (0, 19, 3, 7, 5, 21, 9, 16, 29, 44, 14, 0)
s = 160: (0, 11, 4, 8, 6, 29, 5, 12, 33, 23, 14, 0)
s = 161: (0, 17, 4, 6, 9, 31, 7, 17, 23, 33, 17, 0)
s = 162: (0, 16, 5, 11, 6, 42, 5, 16, 25, 44, 20, 0)
s = 163: (0, 16, 7, 6, 7, 31, 5, 16, 31, 32, 14, 0)
s = 164: (0, 11, 6, 6, 10, 21, 8, 15, 31, 36, 9, 0)
s = 165: (0, 9, 4, 8, 11, 29, 12, 11, 38, 25, 19, 0)
s = 166: (0, 10, 5, 12, 5, 27, 8, 15, 40, 28, 16, 0)
s = 167: (0, 11, 5, 7, 6, 51, 9, 15, 28, 34, 15, 0)
s = 168: (0, 20, 4, 9, 8, 33, 5, 17, 41, 48, 15, 0)
s = 169: (0, 11, 4, 10, 6, 36, 11, 16, 20, 47, 16, 0)
s = 170: (0, 8, 6, 5, 6, 37, 7, 18, 52, 23, 17, 0)
s = 171: (0, 12, 4, 7, 8, 26, 7, 12, 36, 36, 12, 0)
s = 172: (0, 12, 5, 7, 10, 34, 6, 12, 40, 43, 18, 0)
s = 173: (0, 14, 5, 9, 6, 40, 10, 15, 33, 29, 12, 0)
s = 174: (0, 10, 3, 11, 11, 35, 9, 18, 38, 25, 22, 0)
s = 175: (0, 11, 3, 11, 5, 21, 6, 15, 35, 29, 11, 0)
s = 176: (0, 8, 5, 11, 7, 21, 7, 13, 29, 32, 13, 0)
s = 177: (0, 13, 6, 10, 5, 25, 10, 14, 34, 23, 21, 0)
s = 178: (0, 13, 7, 12, 9, 21, 5, 17, 25, 32, 17, 0)
s = 179: (0, 11, 4, 10, 10, 29, 5, 13, 51, 26, 20, 0)
s = 180: (0, 7, 4, 14, 6, 20, 6, 25, 53, 58, 20, 0)
s = 181: (0, 13, 7, 13, 5, 28, 9, 16, 47, 33, 17, 0)
s = 182: (0, 14, 5, 7, 5, 25, 6, 12, 29, 34, 11, 0)
s = 183: (0, 18, 6, 11, 8, 20, 7, 13, 40, 26, 12, 0)
s = 184: (0, 11, 3, 7, 9, 37, 7, 12, 40, 26, 17, 0)
s = 185: (0, 9, 4, 9, 5, 31, 8, 13, 19, 37, 20, 0)
s = 186: (0, 21, 3, 12, 5, 47, 8, 16, 25, 30, 12, 0)
s = 187: (0, 23, 6, 8, 6, 24, 7, 15, 29, 36, 22, 0)
s = 188: (0, 10, 3, 8, 7, 25, 6, 11, 49, 44, 17, 0)
s = 189: (0, 10, 6, 7, 6, 22, 7, 17, 34, 34, 21, 0)
s = 190: (0, 14, 4, 9, 9, 24, 5, 16, 38, 50, 10, 0)
s = 191: (0, 14, 4, 8, 6, 18, 5, 14, 23, 33, 23, 0)
s = 192: (0, 9, 3, 12, 10, 23, 5, 12, 26, 27, 17, 0)
s = 193: (0, 9, 5, 14, 7, 24, 7, 17, 37, 30, 22, 0)
s = 194: (0, 8, 4, 16, 5, 24, 6, 13, 46, 27, 13, 0)
s = 195: (0, 15, 4, 6, 5, 46, 5, 17, 20, 30, 12, 0)
s = 196: (0, 12, 3, 9, 13, 38, 9, 10, 37, 42, 16, 0)
s = 197: (0, 9, 4, 11, 12, 28, 5, 22, 35, 35, 14, 0)
s = 198: (0, 12, 6, 11, 6, 26, 6, 17, 24, 39, 21, 0)
s = 199: (0, 18, 3, 8, 7, 35, 6, 12, 25, 31, 16, 0)
s = 200: (0, 18, 6, 8, 4, 20, 9, 24, 37, 30, 20, 0)
************************************************************************
ES/LS-VALUES:
jobnr.   ES(i)    LS(i)
------------------------------------------------------------------------
  0        0        0
  1        0       64
  2        0       60
  3        0       58
  4        3       68
  5        2       62
  6        2       60
  7        4       62
  8        9       73
  9       12       70
 10       12       77
 11       22       81
************************************************************************
BIG-M-VALUES:
M1 = 42, M2 = 160
************************************************************************
